c [ 1 2 3 4 5 6 7 8 9 10 ]
c r=8.000 p0=0.080
p cnf 10 80
1 10 -6 0
6 -8 9 0
-3 1 -7 0
5 2 4 0
2 -9 -3 0
-6 10 -3 0
8 9 -6 0
-2 5 -4 0
6 -1 -5 0
-8 1 9 0
1 4 -7 0
-8 -4 5 0
-10 7 -1 0
5 -2 -6 0
5 -9 -3 0
-3 7 2 0
6 10 5 0
4 -1 -7 0
-2 -8 3 0
-2 4 -10 0
5 2 4 0
5 -8 2 0
-8 9 4 0
-7 -1 6 0
-1 -4 7 0
-5 -7 3 0
1 -3 -2 0
-6 -1 4 0
8 5 3 0
-3 4 -10 0
-3 2 4 0
-1 5 -10 0
9 -8 -5 0
-1 9 -4 0
-9 -10 7 0
-3 -10 9 0
-5 -2 7 0
3 2 -8 0
-3 10 -6 0
4 -1 -9 0
8 -1 -3 0
-10 1 -3 0
-10 -5 2 0
-8 10 3 0
5 -1 7 0
1 4 10 0
-10 9 4 0
-9 5 3 0
3 -2 -8 0
-8 4 -9 0
1 -8 5 0
8 -1 -6 0
-8 3 1 0
10 -7 -3 0
-6 -10 8 0
-6 -2 10 0
-7 -10 3 0
-1 -6 8 0
-2 10 -1 0
-9 1 6 0
2 10 -9 0
3 -2 -9 0
-3 7 8 0
-6 -2 5 0
-5 4 -2 0
9 -2 -5 0
-9 10 5 0
-8 -2 9 0
9 5 -8 0
-7 -10 6 0
-7 -8 5 0
10 -1 6 0
8 -5 -4 0
-7 1 -2 0
-7 9 2 0
7 -2 -10 0
-10 3 -5 0
-1 -5 9 0
-1 8 4 0
-1 6 7 0
